 $CONTRL DFTTYP=USELIBXC $END
 $LIBXC FUNCTIONAL=AM05 $END
 $SYSTEM MWORDS=500 MEMDDI=20 $END
 $CONTRL MAXIT=200 SCFTYP=RHF RUNTYP=gradient NUMGRD=.T. ISPHER=1 UNITS=ANGS
  EXETYP=RUN COORD=UNIQUE ICHARG=0 MULT=1 AIMPAC=.T. $END
 $BASIS GBASIS=ACC6m EXTFIL=.T. $END
 $SCF DIRSCF=.TRUE. DIIS=.T. $END
 $DFT NRAD=999 NLEB=974 $END
 $DATA
 ./GAMESS_AM05_ACC6m_DIIS_HeHeBq_2.000.inp
C1
 He  2.0 0. 0. -1.000
 He -2.0 0. 0.  1.000
 $END
